(set-logic QF_LRA)
(declare-fun fluent_ready_i0_t0@2 () Bool)
(declare-fun fluent_ready_i1_t0@2 () Bool)
(declare-fun fluent_ready_i0_t1@2 () Bool)
(declare-fun fluent_ready_i1_t1@2 () Bool)
(declare-fun fluent_ready_i0_t2@2 () Bool)
(declare-fun fluent_started_i0_t0@0 () Bool)
(declare-fun fluent_started_i1_t0@0 () Bool)
(declare-fun fluent_started_i0_t1@0 () Bool)
(declare-fun fluent_started_i1_t1@0 () Bool)
(declare-fun fluent_started_i0_t2@0 () Bool)
(declare-fun fluent_ready_i1_t2@2 () Bool)
(declare-fun fluent_ready_i0_t0@0 () Bool)
(declare-fun fluent_ready_i1_t0@0 () Bool)
(declare-fun fluent_ready_i0_t1@0 () Bool)
(declare-fun fluent_ready_i1_t1@0 () Bool)
(declare-fun fluent_ready_i0_t2@0 () Bool)
(declare-fun fluent_ready_i1_t2@0 () Bool)
(declare-fun act_make_treatment@1 () Bool)
(declare-fun fluent_started_i1_t2@0 () Bool)
(declare-fun dur_make_treatment@2 () Real)
(declare-fun act_make_treatment@2 () Bool)
(declare-fun fluent_busy_@0 () Bool)
(declare-fun fluent_treated_i0_t0@0 () Bool)
(declare-fun fluent_treated_i1_t0@0 () Bool)
(declare-fun fluent_treated_i0_t1@0 () Bool)
(declare-fun fluent_treated_i1_t1@0 () Bool)
(declare-fun fluent_treated_i0_t2@0 () Bool)
(declare-fun fluent_treated_i1_t2@0 () Bool)
(declare-fun fluent_counter_t0@0 () Real)
(declare-fun fluent_counter_t1@0 () Real)
(declare-fun fluent_counter_t2@0 () Real)
(declare-fun dur_make_treatment@1 () Real)
(declare-fun t@1 () Real)
(declare-fun t@2 () Real)
(declare-fun parameter_make_treatment_t@1 () Real)
(declare-fun parameter_make_treatment_i@1 () Real)
(declare-fun parameter_make_treatment_next@1 () Real)
(declare-fun fluent_ready_i0_t0@1 () Bool)
(declare-fun fluent_ready_i1_t0@1 () Bool)
(declare-fun fluent_ready_i0_t1@1 () Bool)
(declare-fun fluent_ready_i1_t1@1 () Bool)
(declare-fun fluent_ready_i0_t2@1 () Bool)
(declare-fun fluent_ready_i1_t2@1 () Bool)
(declare-fun parameter_make_treatment_t@2 () Real)
(declare-fun fluent_started_i0_t0@1 () Bool)
(declare-fun fluent_started_i1_t0@1 () Bool)
(declare-fun fluent_started_i0_t1@1 () Bool)
(declare-fun parameter_make_treatment_i@2 () Real)
(declare-fun fluent_started_i1_t1@1 () Bool)
(declare-fun fluent_started_i0_t2@1 () Bool)
(declare-fun fluent_started_i1_t2@1 () Bool)
(declare-fun fluent_treated_i0_t0@1 () Bool)
(declare-fun fluent_treated_i1_t0@1 () Bool)
(declare-fun fluent_treated_i0_t1@1 () Bool)
(declare-fun fluent_treated_i1_t1@1 () Bool)
(declare-fun fluent_treated_i0_t2@1 () Bool)
(declare-fun fluent_treated_i1_t2@1 () Bool)
(declare-fun fluent_busy_@1 () Bool)
(declare-fun fluent_counter_t0@1 () Real)
(declare-fun fluent_counter_t1@1 () Real)
(declare-fun parameter_make_treatment_next@2 () Real)
(declare-fun fluent_counter_t2@1 () Real)
(declare-fun fluent_counter_t0@2 () Real)
(declare-fun fluent_counter_t1@2 () Real)
(declare-fun fluent_counter_t2@2 () Real)
(declare-fun fluent_treated_i0_t0@2 () Bool)
(declare-fun fluent_treated_i1_t0@2 () Bool)
(declare-fun fluent_treated_i0_t1@2 () Bool)
(declare-fun fluent_treated_i1_t1@2 () Bool)
(declare-fun fluent_treated_i0_t2@2 () Bool)
(declare-fun fluent_started_i0_t0@2 () Bool)
(declare-fun fluent_treated_i1_t2@2 () Bool)
(declare-fun fluent_started_i1_t0@2 () Bool)
(declare-fun fluent_started_i0_t1@2 () Bool)
(declare-fun fluent_busy_@2 () Bool)
(declare-fun fluent_started_i1_t1@2 () Bool)
(declare-fun fluent_started_i0_t2@2 () Bool)
(declare-fun fluent_started_i1_t2@2 () Bool)
(assert (let ((.def_0 (<= fluent_counter_t0@2 31.0))) (let ((.def_1 (<= 0.0 fluent_counter_t0@2))) (let ((.def_2 (= parameter_make_treatment_i@2 1.0))) (let ((.def_3 (= parameter_make_treatment_i@2 0.0))) (let ((.def_4 (or .def_3 .def_2))) (let ((.def_5 (= parameter_make_treatment_t@2 4.0))) (let ((.def_6 (= parameter_make_treatment_t@2 3.0))) (let ((.def_7 (= parameter_make_treatment_t@2 2.0))) (let ((.def_8 (or .def_7 .def_6 .def_5))) (let ((.def_9 (= parameter_make_treatment_next@2 4.0))) (let ((.def_10 (= parameter_make_treatment_next@2 3.0))) (let ((.def_11 (= parameter_make_treatment_next@2 2.0))) (let ((.def_12 (or .def_11 .def_10 .def_9))) (let ((.def_13 (<= fluent_counter_t2@2 31.0))) (let ((.def_14 (<= 0.0 fluent_counter_t2@2))) (let ((.def_15 (<= fluent_counter_t1@2 31.0))) (let ((.def_16 (<= 0.0 fluent_counter_t1@2))) (let ((.def_17 (and act_make_treatment@2 true .def_5))) (let ((.def_18 (= fluent_counter_t2@1 fluent_counter_t2@2))) (let ((.def_19 (not .def_18))) (let ((.def_20 (=> .def_19 .def_17))) (let ((.def_21 (and act_make_treatment@2 true .def_6))) (let ((.def_22 (= fluent_counter_t1@1 fluent_counter_t1@2))) (let ((.def_23 (not .def_22))) (let ((.def_24 (=> .def_23 .def_21))) (let ((.def_25 (and act_make_treatment@2 true .def_7))) (let ((.def_26 (= fluent_counter_t0@1 fluent_counter_t0@2))) (let ((.def_27 (not .def_26))) (let ((.def_28 (=> .def_27 .def_25))) (let ((.def_29 (+ t@2 10.0))) (let ((.def_30 (= t@2 .def_29))) (let ((.def_31 (and act_make_treatment@2 true .def_30 .def_2 .def_9))) (let ((.def_32 (= parameter_make_treatment_next@1 4.0))) (let ((.def_33 (= parameter_make_treatment_i@1 1.0))) (let ((.def_34 (+ t@1 10.0))) (let ((.def_35 (= t@2 .def_34))) (let ((.def_36 (and act_make_treatment@1 true .def_35 .def_33 .def_32))) (let ((.def_37 (and .def_36 .def_31))) (let ((.def_38 (not .def_37))) (let ((.def_39 (or .def_36 .def_31))) (let ((.def_40 (= fluent_ready_i1_t2@1 fluent_ready_i1_t2@2))) (let ((.def_41 (not .def_40))) (let ((.def_42 (=> .def_41 .def_39))) (let ((.def_43 (and act_make_treatment@2 true .def_30 .def_3 .def_9))) (let ((.def_44 (= parameter_make_treatment_i@1 0.0))) (let ((.def_45 (and act_make_treatment@1 true .def_35 .def_44 .def_32))) (let ((.def_46 (and .def_45 .def_43))) (let ((.def_47 (not .def_46))) (let ((.def_48 (or .def_45 .def_43))) (let ((.def_49 (= fluent_ready_i0_t2@1 fluent_ready_i0_t2@2))) (let ((.def_50 (not .def_49))) (let ((.def_51 (=> .def_50 .def_48))) (let ((.def_52 (and act_make_treatment@2 true .def_30 .def_2 .def_10))) (let ((.def_53 (= parameter_make_treatment_next@1 3.0))) (let ((.def_54 (and act_make_treatment@1 true .def_35 .def_33 .def_53))) (let ((.def_55 (and .def_54 .def_52))) (let ((.def_56 (not .def_55))) (let ((.def_57 (or .def_54 .def_52))) (let ((.def_58 (= fluent_ready_i1_t1@1 fluent_ready_i1_t1@2))) (let ((.def_59 (not .def_58))) (let ((.def_60 (=> .def_59 .def_57))) (let ((.def_61 (and act_make_treatment@2 true .def_30 .def_3 .def_10))) (let ((.def_62 (and act_make_treatment@1 true .def_35 .def_44 .def_53))) (let ((.def_63 (and .def_62 .def_61))) (let ((.def_64 (not .def_63))) (let ((.def_65 (or .def_62 .def_61))) (let ((.def_66 (= fluent_ready_i0_t1@1 fluent_ready_i0_t1@2))) (let ((.def_67 (not .def_66))) (let ((.def_68 (=> .def_67 .def_65))) (let ((.def_69 (and act_make_treatment@2 true .def_30 .def_2 .def_11))) (let ((.def_70 (= parameter_make_treatment_next@1 2.0))) (let ((.def_71 (and act_make_treatment@1 true .def_35 .def_33 .def_70))) (let ((.def_72 (and .def_71 .def_69))) (let ((.def_73 (not .def_72))) (let ((.def_74 (or .def_71 .def_69))) (let ((.def_75 (= fluent_ready_i1_t0@1 fluent_ready_i1_t0@2))) (let ((.def_76 (not .def_75))) (let ((.def_77 (=> .def_76 .def_74))) (let ((.def_78 (and act_make_treatment@2 true .def_30 .def_3 .def_11))) (let ((.def_79 (and act_make_treatment@1 true .def_35 .def_44 .def_70))) (let ((.def_80 (and .def_79 .def_78))) (let ((.def_81 (not .def_80))) (let ((.def_82 (or .def_79 .def_78))) (let ((.def_83 (= fluent_ready_i0_t0@1 fluent_ready_i0_t0@2))) (let ((.def_84 (not .def_83))) (let ((.def_85 (=> .def_84 .def_82))) (let ((.def_86 (and act_make_treatment@2 true .def_2 .def_5))) (let ((.def_87 (= fluent_started_i1_t2@1 fluent_started_i1_t2@2))) (let ((.def_88 (not .def_87))) (let ((.def_89 (=> .def_88 .def_86))) (let ((.def_90 (and act_make_treatment@2 true .def_3 .def_5))) (let ((.def_91 (= fluent_started_i0_t2@1 fluent_started_i0_t2@2))) (let ((.def_92 (not .def_91))) (let ((.def_93 (=> .def_92 .def_90))) (let ((.def_94 (and act_make_treatment@2 true .def_2 .def_6))) (let ((.def_95 (= fluent_started_i1_t1@1 fluent_started_i1_t1@2))) (let ((.def_96 (not .def_95))) (let ((.def_97 (=> .def_96 .def_94))) (let ((.def_98 (and act_make_treatment@2 true .def_3 .def_6))) (let ((.def_99 (= fluent_started_i0_t1@1 fluent_started_i0_t1@2))) (let ((.def_100 (not .def_99))) (let ((.def_101 (=> .def_100 .def_98))) (let ((.def_102 (and act_make_treatment@2 true .def_2 .def_7))) (let ((.def_103 (= fluent_started_i1_t0@1 fluent_started_i1_t0@2))) (let ((.def_104 (not .def_103))) (let ((.def_105 (=> .def_104 .def_102))) (let ((.def_106 (and act_make_treatment@2 true .def_3 .def_7))) (let ((.def_107 (= fluent_started_i0_t0@1 fluent_started_i0_t0@2))) (let ((.def_108 (not .def_107))) (let ((.def_109 (=> .def_108 .def_106))) (let ((.def_110 (+ t@2 4.0))) (let ((.def_111 (= t@2 .def_110))) (let ((.def_112 (and act_make_treatment@2 true .def_111 .def_2 .def_5))) (let ((.def_113 (= parameter_make_treatment_t@1 4.0))) (let ((.def_114 (+ t@1 4.0))) (let ((.def_115 (= t@2 .def_114))) (let ((.def_116 (and act_make_treatment@1 true .def_115 .def_33 .def_113))) (let ((.def_117 (and .def_116 .def_112))) (let ((.def_118 (not .def_117))) (let ((.def_119 (or .def_116 .def_112))) (let ((.def_120 (= fluent_treated_i1_t2@1 fluent_treated_i1_t2@2))) (let ((.def_121 (not .def_120))) (let ((.def_122 (=> .def_121 .def_119))) (let ((.def_123 (and act_make_treatment@2 true .def_111 .def_3 .def_5))) (let ((.def_124 (and act_make_treatment@1 true .def_115 .def_44 .def_113))) (let ((.def_125 (and .def_124 .def_123))) (let ((.def_126 (not .def_125))) (let ((.def_127 (or .def_124 .def_123))) (let ((.def_128 (= fluent_treated_i0_t2@1 fluent_treated_i0_t2@2))) (let ((.def_129 (not .def_128))) (let ((.def_130 (=> .def_129 .def_127))) (let ((.def_131 (and act_make_treatment@2 true .def_111 .def_2 .def_6))) (let ((.def_132 (= parameter_make_treatment_t@1 3.0))) (let ((.def_133 (and act_make_treatment@1 true .def_115 .def_33 .def_132))) (let ((.def_134 (and .def_133 .def_131))) (let ((.def_135 (not .def_134))) (let ((.def_136 (or .def_133 .def_131))) (let ((.def_137 (= fluent_treated_i1_t1@1 fluent_treated_i1_t1@2))) (let ((.def_138 (not .def_137))) (let ((.def_139 (=> .def_138 .def_136))) (let ((.def_140 (and act_make_treatment@2 true .def_111 .def_3 .def_6))) (let ((.def_141 (and act_make_treatment@1 true .def_115 .def_44 .def_132))) (let ((.def_142 (and .def_141 .def_140))) (let ((.def_143 (not .def_142))) (let ((.def_144 (or .def_141 .def_140))) (let ((.def_145 (= fluent_treated_i0_t1@1 fluent_treated_i0_t1@2))) (let ((.def_146 (not .def_145))) (let ((.def_147 (=> .def_146 .def_144))) (let ((.def_148 (and act_make_treatment@2 true .def_111 .def_2 .def_7))) (let ((.def_149 (= parameter_make_treatment_t@1 2.0))) (let ((.def_150 (and act_make_treatment@1 true .def_115 .def_33 .def_149))) (let ((.def_151 (and .def_150 .def_148))) (let ((.def_152 (not .def_151))) (let ((.def_153 (or .def_150 .def_148))) (let ((.def_154 (= fluent_treated_i1_t0@1 fluent_treated_i1_t0@2))) (let ((.def_155 (not .def_154))) (let ((.def_156 (=> .def_155 .def_153))) (let ((.def_157 (and act_make_treatment@2 true .def_111 .def_3 .def_7))) (let ((.def_158 (and act_make_treatment@1 true .def_115 .def_44 .def_149))) (let ((.def_159 (and .def_158 .def_157))) (let ((.def_160 (not .def_159))) (let ((.def_161 (or .def_158 .def_157))) (let ((.def_162 (= fluent_treated_i0_t0@1 fluent_treated_i0_t0@2))) (let ((.def_163 (not .def_162))) (let ((.def_164 (=> .def_163 .def_161))) (let ((.def_165 (and act_make_treatment@2 true .def_111))) (let ((.def_166 (and act_make_treatment@1 true .def_115))) (let ((.def_167 (and .def_166 .def_165))) (let ((.def_168 (not .def_167))) (let ((.def_169 (and act_make_treatment@2 true))) (let ((.def_170 (and .def_169 .def_165))) (let ((.def_171 (not .def_170))) (let ((.def_172 (and .def_169 .def_166))) (let ((.def_173 (not .def_172))) (let ((.def_174 (or .def_169 .def_166 .def_165))) (let ((.def_175 (= fluent_busy_@1 fluent_busy_@2))) (let ((.def_176 (not .def_175))) (let ((.def_177 (=> .def_176 .def_174))) (let ((.def_178 (and .def_177 .def_173 .def_171 .def_168 .def_164 .def_160 .def_156 .def_152 .def_147 .def_143 .def_139 .def_135 .def_130 .def_126 .def_122 .def_118 .def_109 .def_105 .def_101 .def_97 .def_93 .def_89 .def_85 .def_81 .def_77 .def_73 .def_68 .def_64 .def_60 .def_56 .def_51 .def_47 .def_42 .def_38 .def_28 .def_24 .def_20))) (let ((.def_179 (+ t@1 dur_make_treatment@1))) (let ((.def_180 (<= .def_179 t@2))) (let ((.def_181 (= parameter_make_treatment_next@2 parameter_make_treatment_next@1))) (let ((.def_182 (= parameter_make_treatment_t@2 parameter_make_treatment_t@1))) (let ((.def_183 (= parameter_make_treatment_i@2 parameter_make_treatment_i@1))) (let ((.def_184 (and .def_183 .def_182 .def_181))) (let ((.def_185 (and act_make_treatment@2 act_make_treatment@1 .def_184))) (let ((.def_186 (=> .def_185 .def_180))) (let ((.def_187 (= .def_110 t@1))) (let ((.def_188 (and act_make_treatment@2 act_make_treatment@1 .def_187))) (let ((.def_189 (not .def_188))) (let ((.def_190 (+ t@2 dur_make_treatment@2))) (let ((.def_191 (= .def_190 .def_179))) (let ((.def_192 (and act_make_treatment@2 act_make_treatment@1 .def_191))) (let ((.def_193 (not .def_192))) (let ((.def_194 (= .def_29 t@1))) (let ((.def_195 (and act_make_treatment@2 act_make_treatment@1 .def_194))) (let ((.def_196 (not .def_195))) (let ((.def_197 (= t@2 t@1))) (let ((.def_198 (and act_make_treatment@2 act_make_treatment@1 .def_197))) (let ((.def_199 (not .def_198))) (let ((.def_200 (= .def_190 t@1))) (let ((.def_201 (and act_make_treatment@2 act_make_treatment@1 .def_200))) (let ((.def_202 (not .def_201))) (let ((.def_203 (= .def_110 .def_114))) (let ((.def_204 (and act_make_treatment@2 act_make_treatment@1 .def_203))) (let ((.def_205 (not .def_204))) (let ((.def_206 (= .def_29 .def_34))) (let ((.def_207 (and act_make_treatment@2 act_make_treatment@1 .def_206))) (let ((.def_208 (not .def_207))) (let ((.def_209 (and .def_208 .def_205 .def_202 .def_199 .def_196 .def_193 .def_189))) (let ((.def_210 (< t@1 t@2))) (let ((.def_211 (and .def_2 .def_11))) (let ((.def_212 (ite .def_211 fluent_ready_i1_t0@2 fluent_ready_i0_t0@2))) (let ((.def_213 (and .def_3 .def_10))) (let ((.def_214 (ite .def_213 fluent_ready_i0_t1@2 .def_212))) (let ((.def_215 (and .def_2 .def_10))) (let ((.def_216 (ite .def_215 fluent_ready_i1_t1@2 .def_214))) (let ((.def_217 (and .def_3 .def_9))) (let ((.def_218 (ite .def_217 fluent_ready_i0_t2@2 .def_216))) (let ((.def_219 (and .def_2 .def_9))) (let ((.def_220 (ite .def_219 fluent_ready_i1_t2@2 .def_218))) (let ((.def_221 (= .def_220 true))) (let ((.def_222 (=> true .def_221))) (let ((.def_223 (and .def_30 .def_222))) (let ((.def_224 (= fluent_busy_@2 false))) (let ((.def_225 (=> true .def_224))) (let ((.def_226 (and .def_2 .def_7))) (let ((.def_227 (ite .def_226 fluent_treated_i1_t0@2 fluent_treated_i0_t0@2))) (let ((.def_228 (and .def_3 .def_6))) (let ((.def_229 (ite .def_228 fluent_treated_i0_t1@2 .def_227))) (let ((.def_230 (and .def_2 .def_6))) (let ((.def_231 (ite .def_230 fluent_treated_i1_t1@2 .def_229))) (let ((.def_232 (and .def_3 .def_5))) (let ((.def_233 (ite .def_232 fluent_treated_i0_t2@2 .def_231))) (let ((.def_234 (and .def_2 .def_5))) (let ((.def_235 (ite .def_234 fluent_treated_i1_t2@2 .def_233))) (let ((.def_236 (= .def_235 true))) (let ((.def_237 (=> true .def_236))) (let ((.def_238 (and .def_111 .def_237 .def_225))) (let ((.def_239 (ite .def_226 fluent_started_i1_t0@2 fluent_started_i0_t0@2))) (let ((.def_240 (ite .def_228 fluent_started_i0_t1@2 .def_239))) (let ((.def_241 (ite .def_230 fluent_started_i1_t1@2 .def_240))) (let ((.def_242 (ite .def_232 fluent_started_i0_t2@2 .def_241))) (let ((.def_243 (ite .def_234 fluent_started_i1_t2@2 .def_242))) (let ((.def_244 (= .def_243 true))) (let ((.def_245 (=> true .def_244))) (let ((.def_246 (= fluent_busy_@2 true))) (let ((.def_247 (=> true .def_246))) (let ((.def_248 (ite .def_6 fluent_counter_t1@1 fluent_counter_t0@1))) (let ((.def_249 (ite .def_5 fluent_counter_t2@1 .def_248))) (let ((.def_250 (+ .def_249 1.0))) (let ((.def_251 (ite .def_6 fluent_counter_t1@2 fluent_counter_t0@2))) (let ((.def_252 (ite .def_5 fluent_counter_t2@2 .def_251))) (let ((.def_253 (= .def_252 .def_250))) (let ((.def_254 (=> true .def_253))) (let ((.def_255 (= t@2 t@2))) (let ((.def_256 (and .def_255 .def_254 .def_247 .def_245))) (let ((.def_257 (ite .def_211 fluent_started_i1_t0@1 fluent_started_i0_t0@1))) (let ((.def_258 (ite .def_213 fluent_started_i0_t1@1 .def_257))) (let ((.def_259 (ite .def_215 fluent_started_i1_t1@1 .def_258))) (let ((.def_260 (ite .def_217 fluent_started_i0_t2@1 .def_259))) (let ((.def_261 (ite .def_219 fluent_started_i1_t2@1 .def_260))) (let ((.def_262 (<= .def_190 t@2))) (let ((.def_263 (< t@1 .def_190))) (let ((.def_264 (and .def_263 .def_262))) (let ((.def_265 (=> .def_264 .def_261))) (let ((.def_266 (ite .def_226 fluent_ready_i1_t0@1 fluent_ready_i0_t0@1))) (let ((.def_267 (ite .def_228 fluent_ready_i0_t1@1 .def_266))) (let ((.def_268 (ite .def_230 fluent_ready_i1_t1@1 .def_267))) (let ((.def_269 (ite .def_232 fluent_ready_i0_t2@1 .def_268))) (let ((.def_270 (ite .def_234 fluent_ready_i1_t2@1 .def_269))) (let ((.def_271 (ite .def_226 fluent_started_i1_t0@1 fluent_started_i0_t0@1))) (let ((.def_272 (ite .def_228 fluent_started_i0_t1@1 .def_271))) (let ((.def_273 (ite .def_230 fluent_started_i1_t1@1 .def_272))) (let ((.def_274 (ite .def_232 fluent_started_i0_t2@1 .def_273))) (let ((.def_275 (ite .def_234 fluent_started_i1_t2@1 .def_274))) (let ((.def_276 (not .def_275))) (let ((.def_277 (ite .def_226 fluent_treated_i1_t0@1 fluent_treated_i0_t0@1))) (let ((.def_278 (ite .def_228 fluent_treated_i0_t1@1 .def_277))) (let ((.def_279 (ite .def_230 fluent_treated_i1_t1@1 .def_278))) (let ((.def_280 (ite .def_232 fluent_treated_i0_t2@1 .def_279))) (let ((.def_281 (ite .def_234 fluent_treated_i1_t2@1 .def_280))) (let ((.def_282 (not .def_281))) (let ((.def_283 (not fluent_busy_@1))) (let ((.def_284 (and .def_6 .def_11))) (let ((.def_285 (ite .def_284 false false))) (let ((.def_286 (and .def_5 .def_11))) (let ((.def_287 (ite .def_286 false .def_285))) (let ((.def_288 (and .def_7 .def_10))) (let ((.def_289 (ite .def_288 true .def_287))) (let ((.def_290 (and .def_6 .def_10))) (let ((.def_291 (ite .def_290 false .def_289))) (let ((.def_292 (and .def_5 .def_10))) (let ((.def_293 (ite .def_292 false .def_291))) (let ((.def_294 (and .def_7 .def_9))) (let ((.def_295 (ite .def_294 false .def_293))) (let ((.def_296 (and .def_6 .def_9))) (let ((.def_297 (ite .def_296 true .def_295))) (let ((.def_298 (and .def_5 .def_9))) (let ((.def_299 (ite .def_298 false .def_297))) (let ((.def_300 (ite .def_2 1.0 0.0))) (let ((.def_301 (= .def_300 .def_249))) (let ((.def_302 (and .def_301 .def_299 .def_283 .def_282 .def_276 .def_270))) (let ((.def_303 (<= t@2 t@2))) (let ((.def_304 (and .def_210 .def_303))) (let ((.def_305 (=> .def_304 .def_302))) (let ((.def_306 (<= dur_make_treatment@2 15.0))) (let ((.def_307 (<= 15.0 dur_make_treatment@2))) (let ((.def_308 (and .def_307 .def_306))) (let ((.def_309 (and .def_308 .def_262 .def_305 .def_265 .def_256 .def_238 .def_223))) (let ((.def_310 (=> act_make_treatment@2 .def_309))) (let ((.def_311 (<= fluent_counter_t2@1 31.0))) (let ((.def_312 (<= 0.0 fluent_counter_t2@1))) (let ((.def_313 (<= fluent_counter_t1@1 31.0))) (let ((.def_314 (<= 0.0 fluent_counter_t1@1))) (let ((.def_315 (or .def_44 .def_33))) (let ((.def_316 (or .def_70 .def_53 .def_32))) (let ((.def_317 (<= 0.0 fluent_counter_t0@1))) (let ((.def_318 (<= fluent_counter_t0@1 31.0))) (let ((.def_319 (or .def_149 .def_132 .def_113))) (let ((.def_320 (and act_make_treatment@1 true .def_113))) (let ((.def_321 (= fluent_counter_t2@0 fluent_counter_t2@1))) (let ((.def_322 (not .def_321))) (let ((.def_323 (=> .def_322 .def_320))) (let ((.def_324 (and act_make_treatment@1 true .def_132))) (let ((.def_325 (= fluent_counter_t1@0 fluent_counter_t1@1))) (let ((.def_326 (not .def_325))) (let ((.def_327 (=> .def_326 .def_324))) (let ((.def_328 (and act_make_treatment@1 true .def_149))) (let ((.def_329 (= fluent_counter_t0@0 fluent_counter_t0@1))) (let ((.def_330 (not .def_329))) (let ((.def_331 (=> .def_330 .def_328))) (let ((.def_332 (= t@1 .def_34))) (let ((.def_333 (and act_make_treatment@1 true .def_332 .def_33 .def_32))) (let ((.def_334 (= fluent_ready_i1_t2@0 fluent_ready_i1_t2@1))) (let ((.def_335 (not .def_334))) (let ((.def_336 (=> .def_335 .def_333))) (let ((.def_337 (and act_make_treatment@1 true .def_332 .def_44 .def_32))) (let ((.def_338 (= fluent_ready_i0_t2@0 fluent_ready_i0_t2@1))) (let ((.def_339 (not .def_338))) (let ((.def_340 (=> .def_339 .def_337))) (let ((.def_341 (and act_make_treatment@1 true .def_332 .def_33 .def_53))) (let ((.def_342 (= fluent_ready_i1_t1@0 fluent_ready_i1_t1@1))) (let ((.def_343 (not .def_342))) (let ((.def_344 (=> .def_343 .def_341))) (let ((.def_345 (and act_make_treatment@1 true .def_332 .def_44 .def_53))) (let ((.def_346 (= fluent_ready_i0_t1@0 fluent_ready_i0_t1@1))) (let ((.def_347 (not .def_346))) (let ((.def_348 (=> .def_347 .def_345))) (let ((.def_349 (and act_make_treatment@1 true .def_332 .def_33 .def_70))) (let ((.def_350 (= fluent_ready_i1_t0@0 fluent_ready_i1_t0@1))) (let ((.def_351 (not .def_350))) (let ((.def_352 (=> .def_351 .def_349))) (let ((.def_353 (and act_make_treatment@1 true .def_332 .def_44 .def_70))) (let ((.def_354 (= fluent_ready_i0_t0@0 fluent_ready_i0_t0@1))) (let ((.def_355 (not .def_354))) (let ((.def_356 (=> .def_355 .def_353))) (let ((.def_357 (and act_make_treatment@1 true .def_33 .def_113))) (let ((.def_358 (= fluent_started_i1_t2@0 fluent_started_i1_t2@1))) (let ((.def_359 (not .def_358))) (let ((.def_360 (=> .def_359 .def_357))) (let ((.def_361 (and act_make_treatment@1 true .def_44 .def_113))) (let ((.def_362 (= fluent_started_i0_t2@0 fluent_started_i0_t2@1))) (let ((.def_363 (not .def_362))) (let ((.def_364 (=> .def_363 .def_361))) (let ((.def_365 (and act_make_treatment@1 true .def_33 .def_132))) (let ((.def_366 (= fluent_started_i1_t1@0 fluent_started_i1_t1@1))) (let ((.def_367 (not .def_366))) (let ((.def_368 (=> .def_367 .def_365))) (let ((.def_369 (and act_make_treatment@1 true .def_44 .def_132))) (let ((.def_370 (= fluent_started_i0_t1@0 fluent_started_i0_t1@1))) (let ((.def_371 (not .def_370))) (let ((.def_372 (=> .def_371 .def_369))) (let ((.def_373 (and act_make_treatment@1 true .def_33 .def_149))) (let ((.def_374 (= fluent_started_i1_t0@0 fluent_started_i1_t0@1))) (let ((.def_375 (not .def_374))) (let ((.def_376 (=> .def_375 .def_373))) (let ((.def_377 (and act_make_treatment@1 true .def_44 .def_149))) (let ((.def_378 (= fluent_started_i0_t0@0 fluent_started_i0_t0@1))) (let ((.def_379 (not .def_378))) (let ((.def_380 (=> .def_379 .def_377))) (let ((.def_381 (= t@1 .def_114))) (let ((.def_382 (and act_make_treatment@1 true .def_381 .def_33 .def_113))) (let ((.def_383 (= fluent_treated_i1_t2@0 fluent_treated_i1_t2@1))) (let ((.def_384 (not .def_383))) (let ((.def_385 (=> .def_384 .def_382))) (let ((.def_386 (and act_make_treatment@1 true .def_381 .def_44 .def_113))) (let ((.def_387 (= fluent_treated_i0_t2@0 fluent_treated_i0_t2@1))) (let ((.def_388 (not .def_387))) (let ((.def_389 (=> .def_388 .def_386))) (let ((.def_390 (and act_make_treatment@1 true .def_381 .def_33 .def_132))) (let ((.def_391 (= fluent_treated_i1_t1@0 fluent_treated_i1_t1@1))) (let ((.def_392 (not .def_391))) (let ((.def_393 (=> .def_392 .def_390))) (let ((.def_394 (and act_make_treatment@1 true .def_381 .def_44 .def_132))) (let ((.def_395 (= fluent_treated_i0_t1@0 fluent_treated_i0_t1@1))) (let ((.def_396 (not .def_395))) (let ((.def_397 (=> .def_396 .def_394))) (let ((.def_398 (and act_make_treatment@1 true .def_381 .def_33 .def_149))) (let ((.def_399 (= fluent_treated_i1_t0@0 fluent_treated_i1_t0@1))) (let ((.def_400 (not .def_399))) (let ((.def_401 (=> .def_400 .def_398))) (let ((.def_402 (and act_make_treatment@1 true .def_381 .def_44 .def_149))) (let ((.def_403 (= fluent_treated_i0_t0@0 fluent_treated_i0_t0@1))) (let ((.def_404 (not .def_403))) (let ((.def_405 (=> .def_404 .def_402))) (let ((.def_406 (and act_make_treatment@1 true .def_381))) (let ((.def_407 (and act_make_treatment@1 true))) (let ((.def_408 (and .def_407 .def_406))) (let ((.def_409 (not .def_408))) (let ((.def_410 (or .def_407 .def_406))) (let ((.def_411 (= fluent_busy_@0 fluent_busy_@1))) (let ((.def_412 (not .def_411))) (let ((.def_413 (=> .def_412 .def_410))) (let ((.def_414 (and .def_413 .def_409 .def_405 .def_401 .def_397 .def_393 .def_389 .def_385 .def_380 .def_376 .def_372 .def_368 .def_364 .def_360 .def_356 .def_352 .def_348 .def_344 .def_340 .def_336 .def_331 .def_327 .def_323))) (let ((.def_415 (= .def_114 t@2))) (let ((.def_416 (and act_make_treatment@1 act_make_treatment@2 .def_415))) (let ((.def_417 (not .def_416))) (let ((.def_418 (= .def_179 .def_190))) (let ((.def_419 (and act_make_treatment@1 act_make_treatment@2 .def_418))) (let ((.def_420 (not .def_419))) (let ((.def_421 (= .def_34 t@2))) (let ((.def_422 (and act_make_treatment@1 act_make_treatment@2 .def_421))) (let ((.def_423 (not .def_422))) (let ((.def_424 (= t@1 t@2))) (let ((.def_425 (and act_make_treatment@1 act_make_treatment@2 .def_424))) (let ((.def_426 (not .def_425))) (let ((.def_427 (= .def_179 t@2))) (let ((.def_428 (and act_make_treatment@1 act_make_treatment@2 .def_427))) (let ((.def_429 (not .def_428))) (let ((.def_430 (= .def_114 .def_110))) (let ((.def_431 (and act_make_treatment@1 act_make_treatment@2 .def_430))) (let ((.def_432 (not .def_431))) (let ((.def_433 (= .def_34 .def_29))) (let ((.def_434 (and act_make_treatment@1 act_make_treatment@2 .def_433))) (let ((.def_435 (not .def_434))) (let ((.def_436 (and .def_435 .def_432 .def_429 .def_426 .def_423 .def_420 .def_417))) (let ((.def_437 (<= 0.0 t@1))) (let ((.def_438 (and .def_33 .def_70))) (let ((.def_439 (ite .def_438 fluent_ready_i1_t0@2 fluent_ready_i0_t0@2))) (let ((.def_440 (and .def_44 .def_53))) (let ((.def_441 (ite .def_440 fluent_ready_i0_t1@2 .def_439))) (let ((.def_442 (and .def_33 .def_53))) (let ((.def_443 (ite .def_442 fluent_ready_i1_t1@2 .def_441))) (let ((.def_444 (and .def_44 .def_32))) (let ((.def_445 (ite .def_444 fluent_ready_i0_t2@2 .def_443))) (let ((.def_446 (and .def_33 .def_32))) (let ((.def_447 (ite .def_446 fluent_ready_i1_t2@2 .def_445))) (let ((.def_448 (= .def_447 true))) (let ((.def_449 (=> true .def_448))) (let ((.def_450 (and .def_35 .def_449))) (let ((.def_451 (ite .def_438 fluent_ready_i1_t0@1 fluent_ready_i0_t0@1))) (let ((.def_452 (ite .def_440 fluent_ready_i0_t1@1 .def_451))) (let ((.def_453 (ite .def_442 fluent_ready_i1_t1@1 .def_452))) (let ((.def_454 (ite .def_444 fluent_ready_i0_t2@1 .def_453))) (let ((.def_455 (ite .def_446 fluent_ready_i1_t2@1 .def_454))) (let ((.def_456 (= .def_455 true))) (let ((.def_457 (=> true .def_456))) (let ((.def_458 (and .def_332 .def_457))) (let ((.def_459 (or .def_458 .def_450))) (let ((.def_460 (and .def_33 .def_149))) (let ((.def_461 (ite .def_460 fluent_treated_i1_t0@2 fluent_treated_i0_t0@2))) (let ((.def_462 (and .def_44 .def_132))) (let ((.def_463 (ite .def_462 fluent_treated_i0_t1@2 .def_461))) (let ((.def_464 (and .def_33 .def_132))) (let ((.def_465 (ite .def_464 fluent_treated_i1_t1@2 .def_463))) (let ((.def_466 (and .def_44 .def_113))) (let ((.def_467 (ite .def_466 fluent_treated_i0_t2@2 .def_465))) (let ((.def_468 (and .def_33 .def_113))) (let ((.def_469 (ite .def_468 fluent_treated_i1_t2@2 .def_467))) (let ((.def_470 (= .def_469 true))) (let ((.def_471 (=> true .def_470))) (let ((.def_472 (and .def_115 .def_471 .def_225))) (let ((.def_473 (= fluent_busy_@1 false))) (let ((.def_474 (=> true .def_473))) (let ((.def_475 (ite .def_460 fluent_treated_i1_t0@1 fluent_treated_i0_t0@1))) (let ((.def_476 (ite .def_462 fluent_treated_i0_t1@1 .def_475))) (let ((.def_477 (ite .def_464 fluent_treated_i1_t1@1 .def_476))) (let ((.def_478 (ite .def_466 fluent_treated_i0_t2@1 .def_477))) (let ((.def_479 (ite .def_468 fluent_treated_i1_t2@1 .def_478))) (let ((.def_480 (= .def_479 true))) (let ((.def_481 (=> true .def_480))) (let ((.def_482 (and .def_381 .def_481 .def_474))) (let ((.def_483 (or .def_482 .def_472))) (let ((.def_484 (ite .def_460 fluent_started_i1_t0@1 fluent_started_i0_t0@1))) (let ((.def_485 (ite .def_462 fluent_started_i0_t1@1 .def_484))) (let ((.def_486 (ite .def_464 fluent_started_i1_t1@1 .def_485))) (let ((.def_487 (ite .def_466 fluent_started_i0_t2@1 .def_486))) (let ((.def_488 (ite .def_468 fluent_started_i1_t2@1 .def_487))) (let ((.def_489 (= .def_488 true))) (let ((.def_490 (=> true .def_489))) (let ((.def_491 (= fluent_busy_@1 true))) (let ((.def_492 (=> true .def_491))) (let ((.def_493 (ite .def_132 fluent_counter_t1@0 fluent_counter_t0@0))) (let ((.def_494 (ite .def_113 fluent_counter_t2@0 .def_493))) (let ((.def_495 (+ .def_494 1.0))) (let ((.def_496 (ite .def_132 fluent_counter_t1@1 fluent_counter_t0@1))) (let ((.def_497 (ite .def_113 fluent_counter_t2@1 .def_496))) (let ((.def_498 (= .def_497 .def_495))) (let ((.def_499 (=> true .def_498))) (let ((.def_500 (= t@1 t@1))) (let ((.def_501 (and .def_500 .def_499 .def_492 .def_490))) (let ((.def_502 (ite .def_438 fluent_started_i1_t0@1 fluent_started_i0_t0@1))) (let ((.def_503 (ite .def_440 fluent_started_i0_t1@1 .def_502))) (let ((.def_504 (ite .def_442 fluent_started_i1_t1@1 .def_503))) (let ((.def_505 (ite .def_444 fluent_started_i0_t2@1 .def_504))) (let ((.def_506 (ite .def_446 fluent_started_i1_t2@1 .def_505))) (let ((.def_507 (< t@1 .def_179))) (let ((.def_508 (and .def_507 .def_180))) (let ((.def_509 (=> .def_508 .def_506))) (let ((.def_510 (ite .def_438 fluent_started_i1_t0@0 fluent_started_i0_t0@0))) (let ((.def_511 (ite .def_440 fluent_started_i0_t1@0 .def_510))) (let ((.def_512 (ite .def_442 fluent_started_i1_t1@0 .def_511))) (let ((.def_513 (ite .def_444 fluent_started_i0_t2@0 .def_512))) (let ((.def_514 (ite .def_446 fluent_started_i1_t2@0 .def_513))) (let ((.def_515 (<= .def_179 t@1))) (let ((.def_516 (< (- 1.0) .def_179))) (let ((.def_517 (and .def_516 .def_515))) (let ((.def_518 (=> .def_517 .def_514))) (let ((.def_519 (ite .def_460 fluent_ready_i1_t0@1 fluent_ready_i0_t0@1))) (let ((.def_520 (ite .def_462 fluent_ready_i0_t1@1 .def_519))) (let ((.def_521 (ite .def_464 fluent_ready_i1_t1@1 .def_520))) (let ((.def_522 (ite .def_466 fluent_ready_i0_t2@1 .def_521))) (let ((.def_523 (ite .def_468 fluent_ready_i1_t2@1 .def_522))) (let ((.def_524 (not .def_488))) (let ((.def_525 (not .def_479))) (let ((.def_526 (and .def_132 .def_70))) (let ((.def_527 (ite .def_526 false false))) (let ((.def_528 (and .def_113 .def_70))) (let ((.def_529 (ite .def_528 false .def_527))) (let ((.def_530 (and .def_149 .def_53))) (let ((.def_531 (ite .def_530 true .def_529))) (let ((.def_532 (and .def_132 .def_53))) (let ((.def_533 (ite .def_532 false .def_531))) (let ((.def_534 (and .def_113 .def_53))) (let ((.def_535 (ite .def_534 false .def_533))) (let ((.def_536 (and .def_149 .def_32))) (let ((.def_537 (ite .def_536 false .def_535))) (let ((.def_538 (and .def_132 .def_32))) (let ((.def_539 (ite .def_538 true .def_537))) (let ((.def_540 (and .def_113 .def_32))) (let ((.def_541 (ite .def_540 false .def_539))) (let ((.def_542 (ite .def_33 1.0 0.0))) (let ((.def_543 (= .def_542 .def_497))) (let ((.def_544 (and .def_543 .def_541 .def_283 .def_525 .def_524 .def_523))) (let ((.def_545 (<= t@1 t@2))) (let ((.def_546 (< t@1 t@1))) (let ((.def_547 (and .def_546 .def_545))) (let ((.def_548 (=> .def_547 .def_544))) (let ((.def_549 (ite .def_460 fluent_ready_i1_t0@0 fluent_ready_i0_t0@0))) (let ((.def_550 (ite .def_462 fluent_ready_i0_t1@0 .def_549))) (let ((.def_551 (ite .def_464 fluent_ready_i1_t1@0 .def_550))) (let ((.def_552 (ite .def_466 fluent_ready_i0_t2@0 .def_551))) (let ((.def_553 (ite .def_468 fluent_ready_i1_t2@0 .def_552))) (let ((.def_554 (ite .def_460 fluent_started_i1_t0@0 fluent_started_i0_t0@0))) (let ((.def_555 (ite .def_462 fluent_started_i0_t1@0 .def_554))) (let ((.def_556 (ite .def_464 fluent_started_i1_t1@0 .def_555))) (let ((.def_557 (ite .def_466 fluent_started_i0_t2@0 .def_556))) (let ((.def_558 (ite .def_468 fluent_started_i1_t2@0 .def_557))) (let ((.def_559 (not .def_558))) (let ((.def_560 (ite .def_460 fluent_treated_i1_t0@0 fluent_treated_i0_t0@0))) (let ((.def_561 (ite .def_462 fluent_treated_i0_t1@0 .def_560))) (let ((.def_562 (ite .def_464 fluent_treated_i1_t1@0 .def_561))) (let ((.def_563 (ite .def_466 fluent_treated_i0_t2@0 .def_562))) (let ((.def_564 (ite .def_468 fluent_treated_i1_t2@0 .def_563))) (let ((.def_565 (not .def_564))) (let ((.def_566 (not fluent_busy_@0))) (let ((.def_567 (= .def_542 .def_494))) (let ((.def_568 (and .def_567 .def_541 .def_566 .def_565 .def_559 .def_553))) (let ((.def_569 (<= t@1 t@1))) (let ((.def_570 (< (- 1.0) t@1))) (let ((.def_571 (and .def_570 .def_569))) (let ((.def_572 (=> .def_571 .def_568))) (let ((.def_573 (<= dur_make_treatment@1 15.0))) (let ((.def_574 (<= 15.0 dur_make_treatment@1))) (let ((.def_575 (and .def_574 .def_573))) (let ((.def_576 (and .def_575 .def_180 .def_572 .def_548 .def_518 .def_509 .def_501 .def_483 .def_459))) (let ((.def_577 (=> act_make_treatment@1 .def_576))) (let ((.def_578 (<= fluent_counter_t2@0 31.0))) (let ((.def_579 (<= 0.0 fluent_counter_t2@0))) (let ((.def_580 (<= fluent_counter_t1@0 31.0))) (let ((.def_581 (<= 0.0 fluent_counter_t1@0))) (let ((.def_582 (<= fluent_counter_t0@0 31.0))) (let ((.def_583 (<= 0.0 fluent_counter_t0@0))) (let ((.def_584 (= fluent_counter_t2@0 0.0))) (let ((.def_585 (= fluent_counter_t1@0 0.0))) (let ((.def_586 (= fluent_counter_t0@0 0.0))) (let ((.def_587 (= false false))) (let ((.def_588 (= fluent_ready_i1_t2@0 false))) (let ((.def_589 (= fluent_ready_i0_t2@0 false))) (let ((.def_590 (= fluent_ready_i1_t1@0 false))) (let ((.def_591 (= fluent_ready_i0_t1@0 false))) (let ((.def_592 (= fluent_started_i1_t1@0 false))) (let ((.def_593 (= fluent_started_i0_t1@0 false))) (let ((.def_594 (= fluent_started_i1_t0@0 false))) (let ((.def_595 (= fluent_started_i0_t0@0 false))) (let ((.def_596 (= fluent_treated_i1_t2@0 false))) (let ((.def_597 (= fluent_treated_i0_t2@0 false))) (let ((.def_598 (= fluent_treated_i1_t1@0 false))) (let ((.def_599 (= fluent_treated_i0_t1@0 false))) (let ((.def_600 (= fluent_treated_i1_t0@0 false))) (let ((.def_601 (= fluent_treated_i0_t0@0 false))) (let ((.def_602 (= fluent_busy_@0 false))) (let ((.def_603 (= fluent_ready_i1_t0@0 true))) (let ((.def_604 (= fluent_started_i1_t2@0 true))) (let ((.def_605 (= fluent_ready_i0_t0@0 true))) (let ((.def_606 (= fluent_started_i0_t2@0 true))) (let ((.def_607 (= true true))) (let ((.def_608 (= 1.0 1.0))) (let ((.def_609 (= 0.0 0.0))) (let ((.def_610 (and .def_609 .def_608 .def_607 .def_607 .def_606 .def_605 .def_604 .def_603 .def_602 .def_601 .def_600 .def_599 .def_598 .def_597 .def_596 .def_595 .def_594 .def_593 .def_592 .def_591 .def_590 .def_589 .def_588 .def_587 .def_587 .def_587 .def_587 .def_587 .def_587 .def_587 .def_586 .def_585 .def_584 .def_583 .def_582 .def_581 .def_580 .def_579 .def_578))) (let ((.def_611 (and .def_610 .def_577 .def_437 true .def_436 true .def_414 .def_319 .def_318 .def_317 .def_316 .def_315 .def_314 .def_313 .def_312 .def_311 .def_310 .def_210 .def_209 true .def_186 .def_178 .def_16 .def_15 .def_14 .def_13 .def_12 .def_8 .def_4 .def_1 .def_0 true))) .def_611)))))))))))))))))))))))))))))))))))))))))))))))))))))))))))))))))))))))))))))))))))))))))))))))))))))))))))))))))))))))))))))))))))))))))))))))))))))))))))))))))))))))))))))))))))))))))))))))))))))))))))))))))))))))))))))))))))))))))))))))))))))))))))))))))))))))))))))))))))))))))))))))))))))))))))))))))))))))))))))))))))))))))))))))))))))))))))))))))))))))))))))))))))))))))))))))))))))))))))))))))))))))))))))))))))))))))))))))))))))))))))))))))))))))))))))))))))))))))))))))))))))))))))))))))))))))))))))))))))))))))))))))))))))))))))))))))))))))))))))))))))))))))))))))))))))))))))))))))))))))))))))))))))))
(check-sat)
